10
0 6 20 78 50 39 80 35 71 91 
48 0 76 20 74 12 20 60 93 3 
67 57 0 70 46 71 84 55 69 10 
18 64 95 0 12 10 88 91 36 58 
37 38 51 15 0 94 6 40 33 54 
85 16 46 15 95 0 40 65 16 20 
19 54 79 70 57 76 0 17 97 20 
87 11 87 46 44 49 38 0 44 86 
37 56 26 58 66 19 70 28 0 53 
81 1 35 68 97 11 83 53 58 0 
